1 51 2
-819 -364 -848 -717 -328 -532 -909 -93 -170 -886 -85 -448 -622 -589 -86 -250 -267 -904 -709 -343 -976 -289 -980 -374 -783 -474 -709 -437 -527 -578 -18 -771 -371 -804 -228 -808 -131 -93 -560 -696 -463 -802 -853 -920 -462 -998 -630 -778 -769 -125 0 
-82 -639 -129 -217 -652 -542 -73 -943 -731 -114 -965 -544 -311 -413 -825 -792 -760 -84 -194 -646 -56 -639 -78 -691 -238 -459 -382 -531 -483 -379 -987 -136 -630 -242 -696 -148 -822 -982 -475 -392 -495 -152 -176 -146 -617 -71 -388 -319 -190 -848 0 
866 1061 1151 815 1021 928 1061 1178 868 927 1001 1002 828 1147 1060 1048 1176 1084 938 1050 1051 873 882 1065 932 1004 1002 816 1197 1042 1117 1029 903 846 1122 913 925 956 934 1007 1118 881 961 1055 1254 1086 890 967 1111 866 1 
25007 
